NAME : Euclidean Random Tour : n = 100, sample = 10 
COMMENT : Coordinates are generated uniformly sampled from [0, 100000] x [0, 100000] 
DIMENSION : 100 
EDGE_WEIGHT_TYPE : EUC_2D 
TOUR_SECTION 
1
10
39
62
24
28
94
91
13
29
67
88
8
55
81
31
49
36
69
46
80
93
59
15
2
20
3
17
57
66
50
75
86
26
37
9
35
27
98
33
76
43
95
23
32
85
58
54
96
64
21
4
12
97
42
92
22
70
87
44
68
41
7
61
30
82
73
65
6
78
52
25
34
47
5
16
38
72
83
45
84
89
63
51
19
56
53
60
48
71
100
90
99
79
74
40
77
14
18
11
-1
